120
150
46
60
60
46
40
44
47
58
58
41
60
44
51
60
47
60
60
56
40
54
46
45
56
52
43
48
58
60
44
57
40
53
46
51
48
54
41
60
46
55
51
49
58
60
44
56
49
46
45
44
48
59
60
48
44
43
43
47
54
60
41
46
53
54
49
41
44
58
53
48
49
48
51
41
58
60
44
46
50
55
45
44
58
54
49
48
60
60
47
42
58
46
46
47
48
55
43
57
58
42
47
57
51
50
41
56
44
56
50
50
58
40
52
44
42
51
60
48
51
51
